k = 36;
b = 18;
AtomicConstraints =  [|
1, 3|
	1, 4|
	1, 5|
	1, 6|
	1, 7|
	1, 8|
	1, 9|
	1, 10|
	1, 11|
	2, 3|
	2, 4|
	2, 5|
	2, 6|
	2, 7|
	2, 8|
	2, 9|
	2, 10|
	2, 11|
	3, 5|
	3, 6|
	3, 7|
	3, 8|
	4, 5|
	4, 6|
	4, 7|
	4, 8|
	5, 7|
	5, 8|
	6, 7|
	6, 8|
	12, 32|
	12, 31|
	12, 30|
	13, 32|
	15, 23|
	15, 30|
	15, 27|
	15, 28|
	15, 29|
	16, 27|
	16, 28|
	16, 29|
	24, 26|
	24, 25|
	24, 32|
	24, 31|
	24, 30|
	24, 27|
	24, 28|
	24, 29|
	23, 26|
	23, 25|
	23, 32|
	23, 31|
	23, 30|
	23, 27|
	23, 28|
	23, 29|
	26, 32|
	26, 31|
	26, 30|
	26, 27|
	26, 28|
	26, 29|
	25, 32|
	25, 31|
	25, 30|
	25, 27|
	25, 28|
	25, 29|
	20, 24|
	20, 23|
	20, 26|
	20, 25|
	20, 32|
	20, 31|
	20, 30|
	20, 27|
	20, 28|
	20, 29|
	20, 22|
	20, 21|
	19, 15|
	19, 24|
	19, 23|
	19, 26|
	19, 25|
	19, 32|
	19, 31|
	19, 30|
	19, 27|
	19, 28|
	19, 29|
	19, 22|
	19, 21|
	17, 15|
	17, 16|
	17, 23|
	17, 30|
	17, 27|
	17, 28|
	17, 29|
	17, 21|
	18, 15|
	18, 16|
	18, 27|
	18, 28|
	18, 29|
	22, 24|
	22, 23|
	22, 26|
	22, 25|
	22, 32|
	22, 31|
	22, 30|
	22, 27|
	22, 28|
	22, 29|
	21, 24|
	21, 23|
	21, 26|
	21, 25|
	21, 32|
	21, 31|
	21, 30|
	21, 27|
	21, 28|
	21, 29|
	33, 10|
	33, 11|
	36, 9|
	36, 10|
	36, 11|
	35, 9|
	35, 10|
	35, 11|
	34, 9|
	34, 10|
	34, 11|];
DisjunctiveConstraints =  [|1, 4, 22, 1|
	1, 8, 1, 26|
	3, 6, 24, 3|
	5, 8, 26, 5|
	10, 9, 10, 11|
	13, 14, 13, 12|
	15, 27, 9, 15|
	15, 21, 15, 16|
	16, 28, 10, 16|
	20, 32, 14, 20|
	31, 32, 31, 30|
	19, 20, 19, 17|
	19, 31, 13, 19|
	30, 31, 30, 27|
	27, 30, 27, 28|
	28, 27, 28, 29|
	17, 19, 17, 18|
	17, 27, 9, 17|
	18, 28, 10, 18|
	22, 32, 14, 22|
	21, 31, 13, 21|
	21, 22, 21, 15|
	33, 10, 33, 28|
	36, 9, 36, 27|
	36, 35, 36, 33|
	35, 34, 35, 36|];
SoftAtomicConstraints =  [|
2, 1|
4, 3|
6, 5|
8, 7|
9, 10|
10, 11|
13, 12|
14, 13|
21, 15|
15, 16|
19, 17|
17, 18|
20, 19|
22, 21|
24, 23|
26, 25|
30, 27|
27, 28|
28, 29|
31, 30|
32, 31|
36, 33|
34, 35|
35, 36|];
DirectSuccessors =  [];
